1411.90
0 15 38 4 11 47 65 6 54 41 8 39 63 12 62 5 60 51 73 23 42 3 17 68 20 1 31 13 29 10 28 26 35 52 71 74 21 53 44 36 57 14 55 58 9 66 64 19 30 72 61 50 48 56 34 25 46 40 32 45 49 67 70 16 43 37 33 59 24 2 18 7 27 69 22
